70
1 0 2
2 0 36
2 1 18
3 0 12
3 1 34
3 2 4
4 0 19
4 1 39
4 2 31
4 3 40
5 0 1
5 1 25
5 2 30
5 3 40
5 4 5
6 0 5
6 1 3
6 2 27
6 3 13
6 4 33
6 5 3
7 0 28
7 1 9
7 2 3
7 3 31
7 4 9
7 5 24
7 6 38
8 0 11
8 1 14
8 2 20
8 3 32
8 4 29
8 5 29
8 6 23
8 7 4
9 0 12
9 1 20
9 2 4
9 3 25
9 4 5
9 5 20
9 6 37
9 7 13
9 8 8
10 0 37
10 1 5
10 2 27
10 3 2
10 4 8
10 5 32
10 6 7
10 7 21
10 8 29
10 9 33
11 0 36
11 1 12
11 2 20
11 3 4
11 4 2
11 5 6
11 6 6
11 7 27
11 8 21
11 9 26
11 10 23
12 0 40
12 1 11
12 2 30
12 3 16
12 4 37
12 5 14
12 6 15
12 7 37
12 8 10
12 9 1
12 10 28
12 11 8
13 0 4
13 1 1
13 2 11
13 3 11
13 4 17
13 5 38
13 6 37
13 7 16
13 8 40
13 9 17
13 10 25
13 11 28
13 12 9
14 0 25
14 1 32
14 2 18
14 3 20
14 4 2
14 5 38
14 6 27
14 7 27
14 8 28
14 9 10
14 10 26
14 11 3
14 12 13
14 13 33
15 0 24
15 1 9
15 2 38
15 3 31
15 4 19
15 5 1
15 6 6
15 7 2
15 8 4
15 9 2
15 10 33
15 11 28
15 12 24
15 13 14
15 14 7
16 0 10
16 1 36
16 2 34
16 3 9
16 4 17
16 5 1
16 6 14
16 7 14
16 8 31
16 9 14
16 10 8
16 11 18
16 12 29
16 13 37
16 14 40
16 15 15
17 0 30
17 1 22
17 2 11
17 3 20
17 4 15
17 5 17
17 6 1
17 7 5
17 8 34
17 9 12
17 10 39
17 11 31
17 12 14
17 13 18
17 14 19
17 15 9
17 16 38
18 0 14
18 1 28
18 2 25
18 3 32
18 4 6
18 5 16
18 6 23
18 7 20
18 8 32
18 9 17
18 10 29
18 11 15
18 12 20
18 13 33
18 14 33
18 15 38
18 16 21
18 17 9
19 0 12
19 1 10
19 2 25
19 3 27
19 4 2
19 5 26
19 6 35
19 7 12
19 8 31
19 9 34
19 10 8
19 11 15
19 12 6
19 13 2
19 14 18
19 15 25
19 16 26
19 17 33
19 18 17
20 0 4
20 1 30
20 2 12
20 3 3
20 4 24
20 5 34
20 6 40
20 7 13
20 8 28
20 9 18
20 10 38
20 11 31
20 12 31
20 13 36
20 14 21
20 15 19
20 16 23
20 17 34
20 18 14
20 19 6
21 0 17
21 1 34
21 2 40
21 3 6
21 4 32
21 5 35
21 6 39
21 7 25
21 8 2
21 9 7
21 10 34
21 11 30
21 12 19
21 13 29
21 14 18
21 15 40
21 16 2
21 17 2
21 18 19
21 19 30
21 20 16
22 0 14
22 1 25
22 2 5
22 3 40
22 4 34
22 5 34
22 6 2
22 7 26
22 8 14
22 9 9
22 10 28
22 11 13
22 12 39
22 13 35
22 14 20
22 15 29
22 16 25
22 17 21
22 18 9
22 19 18
22 20 35
22 21 3
23 0 6
23 1 27
23 2 7
23 3 30
23 4 2
23 5 13
23 6 18
23 7 9
23 8 25
23 9 18
23 10 32
23 11 16
23 12 27
23 13 25
23 14 21
23 15 3
23 16 3
23 17 21
23 18 40
23 19 11
23 20 5
23 21 4
23 22 36
24 0 8
24 1 14
24 2 30
24 3 31
24 4 18
24 5 17
24 6 27
24 7 12
24 8 39
24 9 30
24 10 10
24 11 15
24 12 1
24 13 10
24 14 33
24 15 38
24 16 17
24 17 40
24 18 32
24 19 10
24 20 33
24 21 37
24 22 19
24 23 4
25 0 17
25 1 32
25 2 3
25 3 37
25 4 25
25 5 4
25 6 9
25 7 6
25 8 33
25 9 21
25 10 17
25 11 33
25 12 25
25 13 6
25 14 17
25 15 27
25 16 28
25 17 26
25 18 26
25 19 10
25 20 15
25 21 5
25 22 3
25 23 5
25 24 24
26 0 8
26 1 2
26 2 10
26 3 34
26 4 18
26 5 35
26 6 14
26 7 3
26 8 36
26 9 26
26 10 30
26 11 1
26 12 9
26 13 5
26 14 33
26 15 3
26 16 21
26 17 31
26 18 10
26 19 28
26 20 39
26 21 22
26 22 34
26 23 21
26 24 34
26 25 22
27 0 4
27 1 28
27 2 23
27 3 7
27 4 6
27 5 40
27 6 24
27 7 37
27 8 9
27 9 12
27 10 2
27 11 6
27 12 25
27 13 19
27 14 16
27 15 26
27 16 20
27 17 5
27 18 35
27 19 18
27 20 26
27 21 4
27 22 17
27 23 25
27 24 19
27 25 13
27 26 3
28 0 22
28 1 7
28 2 6
28 3 4
28 4 14
28 5 27
28 6 3
28 7 29
28 8 8
28 9 27
28 10 35
28 11 28
28 12 28
28 13 20
28 14 11
28 15 19
28 16 35
28 17 32
28 18 30
28 19 23
28 20 31
28 21 24
28 22 40
28 23 9
28 24 21
28 25 28
28 26 18
28 27 30
29 0 40
29 1 28
29 2 26
29 3 40
29 4 40
29 5 18
29 6 9
29 7 38
29 8 19
29 9 40
29 10 4
29 11 37
29 12 23
29 13 32
29 14 2
29 15 32
29 16 24
29 17 6
29 18 24
29 19 14
29 20 15
29 21 2
29 22 5
29 23 34
29 24 23
29 25 26
29 26 18
29 27 1
29 28 32
30 0 20
30 1 12
30 2 16
30 3 24
30 4 34
30 5 28
30 6 30
30 7 35
30 8 32
30 9 28
30 10 17
30 11 36
30 12 11
30 13 17
30 14 27
30 15 23
30 16 35
30 17 9
30 18 6
30 19 4
30 20 37
30 21 4
30 22 8
30 23 5
30 24 36
30 25 14
30 26 28
30 27 29
30 28 18
30 29 20
31 0 27
31 1 6
31 2 31
31 3 39
31 4 25
31 5 7
31 6 18
31 7 31
31 8 22
31 9 38
31 10 22
31 11 9
31 12 6
31 13 17
31 14 34
31 15 3
31 16 16
31 17 25
31 18 19
31 19 16
31 20 26
31 21 20
31 22 6
31 23 6
31 24 9
31 25 6
31 26 1
31 27 5
31 28 23
31 29 23
31 30 33
32 0 30
32 1 37
32 2 17
32 3 17
32 4 12
32 5 31
32 6 35
32 7 25
32 8 35
32 9 33
32 10 14
32 11 9
32 12 23
32 13 7
32 14 9
32 15 1
32 16 32
32 17 17
32 18 31
32 19 14
32 20 14
32 21 36
32 22 9
32 23 25
32 24 39
32 25 12
32 26 16
32 27 9
32 28 15
32 29 33
32 30 17
32 31 22
33 0 32
33 1 37
33 2 28
33 3 18
33 4 1
33 5 14
33 6 30
33 7 34
33 8 4
33 9 3
33 10 29
33 11 14
33 12 2
33 13 32
33 14 4
33 15 2
33 16 24
33 17 39
33 18 1
33 19 7
33 20 37
33 21 1
33 22 12
33 23 23
33 24 6
33 25 31
33 26 8
33 27 11
33 28 33
33 29 21
33 30 39
33 31 13
33 32 25
34 0 4
34 1 32
34 2 33
34 3 9
34 4 35
34 5 3
34 6 40
34 7 2
34 8 33
34 9 37
34 10 19
34 11 34
34 12 26
34 13 40
34 14 39
34 15 5
34 16 37
34 17 35
34 18 27
34 19 20
34 20 25
34 21 24
34 22 20
34 23 36
34 24 22
34 25 26
34 26 36
34 27 14
34 28 19
34 29 32
34 30 21
34 31 2
34 32 2
34 33 28
35 0 15
35 1 29
35 2 30
35 3 33
35 4 9
35 5 10
35 6 18
35 7 7
35 8 38
35 9 21
35 10 17
35 11 17
35 12 23
35 13 38
35 14 31
35 15 22
35 16 14
35 17 18
35 18 26
35 19 20
35 20 2
35 21 25
35 22 30
35 23 1
35 24 23
35 25 12
35 26 2
35 27 24
35 28 12
35 29 5
35 30 17
35 31 33
35 32 30
35 33 18
35 34 8
36 0 40
36 1 29
36 2 20
36 3 7
36 4 22
36 5 35
36 6 17
36 7 36
36 8 30
36 9 11
36 10 5
36 11 24
36 12 24
36 13 17
36 14 16
36 15 14
36 16 3
36 17 4
36 18 8
36 19 35
36 20 5
36 21 23
36 22 40
36 23 4
36 24 31
36 25 14
36 26 18
36 27 37
36 28 22
36 29 11
36 30 37
36 31 7
36 32 5
36 33 35
36 34 14
36 35 36
37 0 21
37 1 5
37 2 39
37 3 31
37 4 27
37 5 1
37 6 20
37 7 35
37 8 4
37 9 33
37 10 33
37 11 4
37 12 23
37 13 17
37 14 17
37 15 22
37 16 32
37 17 30
37 18 6
37 19 38
37 20 30
37 21 34
37 22 30
37 23 2
37 24 26
37 25 37
37 26 24
37 27 12
37 28 24
37 29 38
37 30 21
37 31 8
37 32 6
37 33 2
37 34 8
37 35 25
37 36 28
38 0 9
38 1 7
38 2 18
38 3 10
38 4 40
38 5 11
38 6 17
38 7 36
38 8 32
38 9 19
38 10 16
38 11 9
38 12 20
38 13 6
38 14 6
38 15 15
38 16 15
38 17 3
38 18 7
38 19 21
38 20 6
38 21 12
38 22 25
38 23 4
38 24 5
38 25 8
38 26 4
38 27 24
38 28 22
38 29 1
38 30 31
38 31 16
38 32 25
38 33 35
38 34 15
38 35 26
38 36 36
38 37 36
39 0 30
39 1 36
39 2 31
39 3 9
39 4 6
39 5 17
39 6 27
39 7 26
39 8 21
39 9 14
39 10 33
39 11 16
39 12 14
39 13 33
39 14 33
39 15 24
39 16 31
39 17 40
39 18 14
39 19 22
39 20 5
39 21 22
39 22 36
39 23 33
39 24 10
39 25 38
39 26 9
39 27 14
39 28 38
39 29 31
39 30 31
39 31 34
39 32 20
39 33 33
39 34 26
39 35 28
39 36 13
39 37 24
39 38 18
40 0 31
40 1 40
40 2 25
40 3 12
40 4 37
40 5 9
40 6 28
40 7 5
40 8 9
40 9 24
40 10 32
40 11 10
40 12 3
40 13 3
40 14 24
40 15 27
40 16 28
40 17 24
40 18 16
40 19 8
40 20 33
40 21 17
40 22 13
40 23 11
40 24 23
40 25 33
40 26 30
40 27 16
40 28 19
40 29 10
40 30 23
40 31 10
40 32 28
40 33 21
40 34 33
40 35 1
40 36 19
40 37 40
40 38 10
40 39 20
41 0 22
41 1 13
41 2 20
41 3 4
41 4 1
41 5 2
41 6 25
41 7 26
41 8 37
41 9 36
41 10 12
41 11 31
41 12 16
41 13 5
41 14 26
41 15 3
41 16 14
41 17 24
41 18 37
41 19 20
41 20 5
41 21 40
41 22 6
41 23 29
41 24 38
41 25 39
41 26 25
41 27 9
41 28 39
41 29 11
41 30 40
41 31 20
41 32 34
41 33 11
41 34 40
41 35 23
41 36 34
41 37 11
41 38 10
41 39 29
41 40 15
42 0 24
42 1 33
42 2 8
42 3 15
42 4 7
42 5 10
42 6 3
42 7 27
42 8 14
42 9 11
42 10 36
42 11 21
42 12 8
42 13 23
42 14 20
42 15 33
42 16 5
42 17 6
42 18 3
42 19 31
42 20 38
42 21 7
42 22 29
42 23 34
42 24 32
42 25 21
42 26 34
42 27 21
42 28 1
42 29 8
42 30 33
42 31 38
42 32 17
42 33 16
42 34 21
42 35 31
42 36 20
42 37 1
42 38 4
42 39 23
42 40 4
42 41 28
43 0 36
43 1 14
43 2 39
43 3 38
43 4 9
43 5 35
43 6 16
43 7 17
43 8 23
43 9 6
43 10 9
43 11 10
43 12 30
43 13 3
43 14 12
43 15 2
43 16 13
43 17 39
43 18 21
43 19 30
43 20 31
43 21 36
43 22 14
43 23 1
43 24 27
43 25 28
43 26 31
43 27 30
43 28 35
43 29 3
43 30 10
43 31 24
43 32 2
43 33 18
43 34 36
43 35 21
43 36 16
43 37 9
43 38 39
43 39 32
43 40 18
43 41 23
43 42 15
44 0 8
44 1 39
44 2 8
44 3 1
44 4 28
44 5 29
44 6 24
44 7 36
44 8 3
44 9 10
44 10 11
44 11 16
44 12 26
44 13 9
44 14 27
44 15 7
44 16 22
44 17 40
44 18 28
44 19 25
44 20 5
44 21 5
44 22 10
44 23 36
44 24 12
44 25 15
44 26 38
44 27 21
44 28 9
44 29 5
44 30 11
44 31 32
44 32 2
44 33 23
44 34 22
44 35 40
44 36 3
44 37 32
44 38 19
44 39 2
44 40 30
44 41 26
44 42 15
44 43 26
45 0 28
45 1 13
45 2 6
45 3 17
45 4 8
45 5 28
45 6 28
45 7 10
45 8 29
45 9 37
45 10 7
45 11 1
45 12 10
45 13 3
45 14 26
45 15 9
45 16 33
45 17 21
45 18 22
45 19 32
45 20 9
45 21 15
45 22 19
45 23 39
45 24 31
45 25 16
45 26 38
45 27 22
45 28 1
45 29 2
45 30 4
45 31 2
45 32 12
45 33 28
45 34 35
45 35 27
45 36 23
45 37 34
45 38 21
45 39 10
45 40 19
45 41 9
45 42 2
45 43 22
45 44 32
46 0 6
46 1 26
46 2 23
46 3 7
46 4 3
46 5 7
46 6 21
46 7 36
46 8 32
46 9 28
46 10 11
46 11 30
46 12 9
46 13 36
46 14 20
46 15 15
46 16 1
46 17 15
46 18 18
46 19 33
46 20 17
46 21 12
46 22 15
46 23 3
46 24 36
46 25 14
46 26 34
46 27 22
46 28 31
46 29 20
46 30 31
46 31 11
46 32 26
46 33 21
46 34 16
46 35 32
46 36 22
46 37 35
46 38 38
46 39 22
46 40 29
46 41 34
46 42 28
46 43 27
46 44 38
46 45 11
47 0 24
47 1 31
47 2 26
47 3 22
47 4 14
47 5 11
47 6 38
47 7 38
47 8 6
47 9 40
47 10 27
47 11 13
47 12 10
47 13 22
47 14 40
47 15 12
47 16 38
47 17 8
47 18 4
47 19 22
47 20 28
47 21 20
47 22 38
47 23 24
47 24 26
47 25 7
47 26 17
47 27 28
47 28 22
47 29 19
47 30 35
47 31 17
47 32 35
47 33 9
47 34 14
47 35 33
47 36 38
47 37 26
47 38 36
47 39 36
47 40 32
47 41 39
47 42 14
47 43 39
47 44 19
47 45 38
47 46 5
48 0 37
48 1 4
48 2 33
48 3 12
48 4 37
48 5 23
48 6 33
48 7 23
48 8 4
48 9 33
48 10 33
48 11 19
48 12 29
48 13 13
48 14 21
48 15 40
48 16 18
48 17 28
48 18 3
48 19 32
48 20 25
48 21 40
48 22 15
48 23 2
48 24 4
48 25 7
48 26 13
48 27 16
48 28 32
48 29 14
48 30 20
48 31 37
48 32 34
48 33 5
48 34 19
48 35 12
48 36 16
48 37 3
48 38 18
48 39 26
48 40 8
48 41 7
48 42 40
48 43 26
48 44 18
48 45 35
48 46 11
48 47 38
49 0 29
49 1 24
49 2 16
49 3 34
49 4 1
49 5 24
49 6 29
49 7 9
49 8 36
49 9 40
49 10 22
49 11 14
49 12 18
49 13 14
49 14 26
49 15 29
49 16 36
49 17 21
49 18 36
49 19 11
49 20 21
49 21 8
49 22 22
49 23 22
49 24 10
49 25 30
49 26 1
49 27 33
49 28 32
49 29 2
49 30 21
49 31 27
49 32 11
49 33 12
49 34 23
49 35 20
49 36 7
49 37 13
49 38 7
49 39 8
49 40 11
49 41 36
49 42 26
49 43 34
49 44 11
49 45 22
49 46 36
49 47 11
49 48 34
50 0 14
50 1 34
50 2 16
50 3 4
50 4 30
50 5 11
50 6 18
50 7 24
50 8 38
50 9 18
50 10 35
50 11 25
50 12 34
50 13 35
50 14 26
50 15 4
50 16 19
50 17 18
50 18 25
50 19 27
50 20 39
50 21 34
50 22 23
50 23 17
50 24 10
50 25 23
50 26 21
50 27 27
50 28 21
50 29 11
50 30 24
50 31 24
50 32 9
50 33 9
50 34 33
50 35 24
50 36 9
50 37 6
50 38 13
50 39 33
50 40 12
50 41 20
50 42 23
50 43 39
50 44 7
50 45 5
50 46 22
50 47 29
50 48 32
50 49 39
51 0 4
51 1 39
51 2 19
51 3 40
51 4 28
51 5 3
51 6 1
51 7 27
51 8 34
51 9 20
51 10 8
51 11 28
51 12 1
51 13 31
51 14 2
51 15 30
51 16 23
51 17 25
51 18 31
51 19 15
51 20 37
51 21 14
51 22 20
51 23 16
51 24 24
51 25 26
51 26 30
51 27 26
51 28 10
51 29 17
51 30 29
51 31 16
51 32 20
51 33 33
51 34 36
51 35 8
51 36 26
51 37 34
51 38 32
51 39 39
51 40 3
51 41 21
51 42 34
51 43 16
51 44 39
51 45 2
51 46 2
51 47 8
51 48 14
51 49 6
51 50 3
52 0 14
52 1 23
52 2 29
52 3 10
52 4 36
52 5 11
52 6 19
52 7 2
52 8 35
52 9 28
52 10 31
52 11 19
52 12 36
52 13 9
52 14 25
52 15 9
52 16 39
52 17 1
52 18 31
52 19 27
52 20 28
52 21 4
52 22 31
52 23 38
52 24 13
52 25 37
52 26 19
52 27 28
52 28 35
52 29 23
52 30 4
52 31 8
52 32 2
52 33 4
52 34 1
52 35 7
52 36 23
52 37 24
52 38 29
52 39 12
52 40 25
52 41 35
52 42 2
52 43 37
52 44 30
52 45 6
52 46 36
52 47 16
52 48 4
52 49 35
52 50 26
52 51 1
53 0 26
53 1 19
53 2 37
53 3 4
53 4 21
53 5 13
53 6 3
53 7 20
53 8 40
53 9 8
53 10 28
53 11 24
53 12 15
53 13 33
53 14 12
53 15 30
53 16 11
53 17 3
53 18 27
53 19 7
53 20 21
53 21 27
53 22 22
53 23 20
53 24 38
53 25 32
53 26 26
53 27 4
53 28 1
53 29 27
53 30 16
53 31 23
53 32 25
53 33 9
53 34 34
53 35 34
53 36 24
53 37 18
53 38 2
53 39 40
53 40 4
53 41 27
53 42 32
53 43 38
53 44 28
53 45 13
53 46 40
53 47 5
53 48 22
53 49 29
53 50 32
53 51 36
53 52 19
54 0 31
54 1 1
54 2 4
54 3 19
54 4 2
54 5 30
54 6 28
54 7 12
54 8 7
54 9 23
54 10 9
54 11 30
54 12 31
54 13 32
54 14 31
54 15 1
54 16 15
54 17 13
54 18 27
54 19 19
54 20 33
54 21 18
54 22 5
54 23 3
54 24 20
54 25 13
54 26 6
54 27 1
54 28 35
54 29 13
54 30 2
54 31 38
54 32 23
54 33 6
54 34 39
54 35 30
54 36 4
54 37 17
54 38 11
54 39 35
54 40 13
54 41 26
54 42 38
54 43 38
54 44 33
54 45 1
54 46 8
54 47 27
54 48 32
54 49 37
54 50 31
54 51 21
54 52 30
54 53 5
55 0 39
55 1 31
55 2 13
55 3 28
55 4 8
55 5 31
55 6 4
55 7 23
55 8 20
55 9 22
55 10 4
55 11 34
55 12 26
55 13 1
55 14 18
55 15 23
55 16 11
55 17 29
55 18 6
55 19 21
55 20 31
55 21 16
55 22 13
55 23 2
55 24 11
55 25 7
55 26 2
55 27 12
55 28 14
55 29 9
55 30 30
55 31 10
55 32 16
55 33 28
55 34 35
55 35 3
55 36 4
55 37 33
55 38 7
55 39 14
55 40 13
55 41 9
55 42 36
55 43 31
55 44 33
55 45 33
55 46 26
55 47 9
55 48 28
55 49 40
55 50 29
55 51 35
55 52 22
55 53 31
55 54 14
56 0 4
56 1 28
56 2 10
56 3 37
56 4 35
56 5 1
56 6 19
56 7 7
56 8 23
56 9 5
56 10 30
56 11 6
56 12 19
56 13 2
56 14 20
56 15 38
56 16 19
56 17 26
56 18 35
56 19 40
56 20 27
56 21 13
56 22 13
56 23 16
56 24 38
56 25 31
56 26 26
56 27 40
56 28 23
56 29 1
56 30 34
56 31 39
56 32 23
56 33 33
56 34 8
56 35 23
56 36 11
56 37 39
56 38 23
56 39 19
56 40 22
56 41 27
56 42 7
56 43 3
56 44 9
56 45 21
56 46 32
56 47 9
56 48 39
56 49 27
56 50 23
56 51 29
56 52 29
56 53 37
56 54 29
56 55 11
57 0 9
57 1 40
57 2 27
57 3 32
57 4 6
57 5 25
57 6 32
57 7 9
57 8 15
57 9 14
57 10 13
57 11 20
57 12 38
57 13 34
57 14 22
57 15 37
57 16 32
57 17 11
57 18 4
57 19 11
57 20 22
57 21 5
57 22 34
57 23 28
57 24 28
57 25 19
57 26 4
57 27 26
57 28 6
57 29 14
57 30 30
57 31 31
57 32 34
57 33 1
57 34 25
57 35 23
57 36 3
57 37 17
57 38 21
57 39 39
57 40 13
57 41 18
57 42 9
57 43 15
57 44 15
57 45 24
57 46 24
57 47 26
57 48 18
57 49 27
57 50 34
57 51 5
57 52 35
57 53 24
57 54 13
57 55 36
57 56 25
58 0 37
58 1 14
58 2 22
58 3 14
58 4 2
58 5 38
58 6 6
58 7 17
58 8 21
58 9 39
58 10 20
58 11 10
58 12 39
58 13 11
58 14 33
58 15 26
58 16 20
58 17 14
58 18 40
58 19 23
58 20 20
58 21 20
58 22 19
58 23 24
58 24 7
58 25 15
58 26 20
58 27 9
58 28 25
58 29 33
58 30 40
58 31 9
58 32 27
58 33 24
58 34 8
58 35 22
58 36 11
58 37 7
58 38 11
58 39 25
58 40 5
58 41 19
58 42 11
58 43 18
58 44 13
58 45 35
58 46 1
58 47 10
58 48 3
58 49 11
58 50 5
58 51 20
58 52 37
58 53 1
58 54 35
58 55 27
58 56 20
58 57 27
59 0 35
59 1 25
59 2 31
59 3 9
59 4 31
59 5 1
59 6 38
59 7 4
59 8 16
59 9 2
59 10 34
59 11 39
59 12 27
59 13 29
59 14 12
59 15 29
59 16 40
59 17 26
59 18 35
59 19 6
59 20 16
59 21 9
59 22 33
59 23 8
59 24 22
59 25 17
59 26 15
59 27 13
59 28 34
59 29 35
59 30 25
59 31 7
59 32 40
59 33 23
59 34 19
59 35 9
59 36 24
59 37 31
59 38 21
59 39 13
59 40 31
59 41 28
59 42 4
59 43 39
59 44 13
59 45 39
59 46 13
59 47 13
59 48 6
59 49 17
59 50 9
59 51 18
59 52 9
59 53 9
59 54 16
59 55 11
59 56 30
59 57 15
59 58 13
60 0 14
60 1 35
60 2 22
60 3 32
60 4 5
60 5 2
60 6 18
60 7 32
60 8 24
60 9 5
60 10 5
60 11 27
60 12 21
60 13 30
60 14 12
60 15 34
60 16 11
60 17 25
60 18 37
60 19 4
60 20 22
60 21 19
60 22 19
60 23 7
60 24 36
60 25 6
60 26 36
60 27 13
60 28 5
60 29 2
60 30 22
60 31 3
60 32 11
60 33 29
60 34 26
60 35 13
60 36 4
60 37 13
60 38 31
60 39 17
60 40 29
60 41 18
60 42 33
60 43 37
60 44 39
60 45 19
60 46 39
60 47 8
60 48 38
60 49 10
60 50 40
60 51 5
60 52 23
60 53 35
60 54 35
60 55 22
60 56 37
60 57 4
60 58 10
60 59 38
61 0 4
61 1 15
61 2 25
61 3 31
61 4 33
61 5 17
61 6 3
61 7 24
61 8 9
61 9 11
61 10 32
61 11 25
61 12 37
61 13 34
61 14 8
61 15 6
61 16 20
61 17 26
61 18 25
61 19 20
61 20 11
61 21 2
61 22 29
61 23 15
61 24 37
61 25 12
61 26 23
61 27 8
61 28 23
61 29 8
61 30 1
61 31 13
61 32 33
61 33 8
61 34 11
61 35 10
61 36 31
61 37 8
61 38 4
61 39 38
61 40 31
61 41 14
61 42 33
61 43 40
61 44 35
61 45 29
61 46 23
61 47 12
61 48 33
61 49 19
61 50 13
61 51 12
61 52 15
61 53 3
61 54 9
61 55 9
61 56 36
61 57 28
61 58 33
61 59 32
61 60 2
62 0 25
62 1 9
62 2 5
62 3 21
62 4 16
62 5 22
62 6 37
62 7 14
62 8 12
62 9 33
62 10 19
62 11 19
62 12 39
62 13 24
62 14 22
62 15 1
62 16 22
62 17 27
62 18 20
62 19 1
62 20 22
62 21 27
62 22 6
62 23 15
62 24 12
62 25 25
62 26 13
62 27 40
62 28 37
62 29 19
62 30 33
62 31 37
62 32 24
62 33 17
62 34 21
62 35 16
62 36 13
62 37 11
62 38 31
62 39 22
62 40 40
62 41 22
62 42 4
62 43 36
62 44 15
62 45 30
62 46 19
62 47 40
62 48 29
62 49 40
62 50 29
62 51 35
62 52 32
62 53 11
62 54 24
62 55 40
62 56 28
62 57 19
62 58 21
62 59 12
62 60 22
62 61 22
63 0 19
63 1 28
63 2 8
63 3 6
63 4 6
63 5 7
63 6 19
63 7 16
63 8 4
63 9 25
63 10 15
63 11 4
63 12 15
63 13 39
63 14 20
63 15 6
63 16 5
63 17 1
63 18 20
63 19 12
63 20 37
63 21 12
63 22 16
63 23 4
63 24 2
63 25 37
63 26 1
63 27 3
63 28 31
63 29 32
63 30 36
63 31 17
63 32 18
63 33 7
63 34 13
63 35 15
63 36 37
63 37 14
63 38 23
63 39 20
63 40 24
63 41 18
63 42 15
63 43 15
63 44 16
63 45 9
63 46 40
63 47 18
63 48 35
63 49 13
63 50 37
63 51 35
63 52 31
63 53 31
63 54 24
63 55 36
63 56 26
63 57 5
63 58 32
63 59 40
63 60 4
63 61 40
63 62 36
64 0 19
64 1 3
64 2 33
64 3 25
64 4 37
64 5 2
64 6 27
64 7 18
64 8 6
64 9 8
64 10 40
64 11 23
64 12 29
64 13 30
64 14 13
64 15 1
64 16 11
64 17 5
64 18 20
64 19 27
64 20 2
64 21 28
64 22 27
64 23 28
64 24 26
64 25 12
64 26 12
64 27 7
64 28 15
64 29 15
64 30 4
64 31 38
64 32 13
64 33 39
64 34 10
64 35 12
64 36 31
64 37 34
64 38 24
64 39 33
64 40 12
64 41 37
64 42 25
64 43 6
64 44 8
64 45 15
64 46 19
64 47 9
64 48 32
64 49 2
64 50 38
64 51 1
64 52 25
64 53 28
64 54 32
64 55 37
64 56 35
64 57 16
64 58 16
64 59 35
64 60 17
64 61 12
64 62 23
64 63 35
65 0 12
65 1 6
65 2 21
65 3 6
65 4 22
65 5 29
65 6 21
65 7 17
65 8 27
65 9 34
65 10 24
65 11 33
65 12 8
65 13 20
65 14 28
65 15 25
65 16 5
65 17 26
65 18 12
65 19 28
65 20 8
65 21 9
65 22 26
65 23 14
65 24 6
65 25 37
65 26 33
65 27 1
65 28 29
65 29 14
65 30 19
65 31 33
65 32 32
65 33 32
65 34 25
65 35 14
65 36 36
65 37 40
65 38 18
65 39 27
65 40 9
65 41 39
65 42 17
65 43 27
65 44 27
65 45 22
65 46 17
65 47 18
65 48 26
65 49 22
65 50 30
65 51 34
65 52 23
65 53 10
65 54 37
65 55 34
65 56 17
65 57 8
65 58 1
65 59 6
65 60 30
65 61 25
65 62 34
65 63 8
65 64 32
66 0 11
66 1 36
66 2 18
66 3 38
66 4 35
66 5 5
66 6 30
66 7 22
66 8 9
66 9 11
66 10 6
66 11 27
66 12 39
66 13 31
66 14 7
66 15 17
66 16 1
66 17 24
66 18 35
66 19 9
66 20 38
66 21 35
66 22 34
66 23 20
66 24 35
66 25 32
66 26 4
66 27 8
66 28 31
66 29 10
66 30 20
66 31 6
66 32 37
66 33 15
66 34 9
66 35 25
66 36 14
66 37 26
66 38 18
66 39 10
66 40 9
66 41 16
66 42 35
66 43 25
66 44 14
66 45 38
66 46 14
66 47 29
66 48 31
66 49 21
66 50 17
66 51 26
66 52 32
66 53 30
66 54 17
66 55 14
66 56 32
66 57 27
66 58 31
66 59 15
66 60 34
66 61 38
66 62 10
66 63 1
66 64 1
66 65 9
67 0 25
67 1 6
67 2 3
67 3 31
67 4 2
67 5 13
67 6 10
67 7 23
67 8 25
67 9 35
67 10 40
67 11 30
67 12 20
67 13 11
67 14 36
67 15 40
67 16 8
67 17 34
67 18 16
67 19 8
67 20 4
67 21 24
67 22 38
67 23 18
67 24 11
67 25 28
67 26 12
67 27 23
67 28 38
67 29 15
67 30 30
67 31 8
67 32 25
67 33 12
67 34 11
67 35 15
67 36 10
67 37 24
67 38 8
67 39 15
67 40 8
67 41 40
67 42 8
67 43 36
67 44 1
67 45 30
67 46 33
67 47 34
67 48 38
67 49 26
67 50 14
67 51 25
67 52 29
67 53 38
67 54 13
67 55 19
67 56 24
67 57 2
67 58 34
67 59 12
67 60 38
67 61 8
67 62 40
67 63 36
67 64 8
67 65 2
67 66 27
68 0 29
68 1 4
68 2 8
68 3 16
68 4 31
68 5 15
68 6 9
68 7 34
68 8 17
68 9 8
68 10 7
68 11 6
68 12 17
68 13 13
68 14 6
68 15 8
68 16 25
68 17 20
68 18 21
68 19 35
68 20 3
68 21 28
68 22 5
68 23 15
68 24 15
68 25 14
68 26 6
68 27 13
68 28 14
68 29 6
68 30 31
68 31 16
68 32 6
68 33 36
68 34 34
68 35 25
68 36 14
68 37 28
68 38 35
68 39 20
68 40 6
68 41 38
68 42 13
68 43 24
68 44 8
68 45 32
68 46 3
68 47 15
68 48 17
68 49 31
68 50 9
68 51 13
68 52 1
68 53 12
68 54 37
68 55 33
68 56 22
68 57 36
68 58 29
68 59 33
68 60 12
68 61 4
68 62 28
68 63 36
68 64 5
68 65 40
68 66 13
68 67 36
69 0 35
69 1 22
69 2 29
69 3 10
69 4 3
69 5 33
69 6 6
69 7 37
69 8 4
69 9 23
69 10 13
69 11 1
69 12 10
69 13 39
69 14 12
69 15 9
69 16 35
69 17 35
69 18 5
69 19 5
69 20 15
69 21 38
69 22 34
69 23 5
69 24 28
69 25 14
69 26 15
69 27 31
69 28 38
69 29 37
69 30 35
69 31 16
69 32 22
69 33 36
69 34 19
69 35 24
69 36 27
69 37 37
69 38 4
69 39 31
69 40 36
69 41 21
69 42 7
69 43 40
69 44 31
69 45 23
69 46 25
69 47 29
69 48 16
69 49 16
69 50 20
69 51 4
69 52 27
69 53 11
69 54 8
69 55 7
69 56 2
69 57 30
69 58 2
69 59 31
69 60 1
69 61 2
69 62 24
69 63 20
69 64 24
69 65 15
69 66 2
69 67 15
69 68 20
